proyfinal/src/viki/013/experimentInOfficeAgust.take6.output/54107d41-8d3b-436a-9e79-b84a8129ecaf.als.dat
{'cnf.clauses': '118081',
 'cnf.totvars': '69608',
 'conflict literals': '7',
 'conflicts': '6',
 'decisions': '1219',
 'memused.mb': '14.68',
 'outcome': 'UNSAT',
 'propagations': '20763',
 'restarts': '1',
 'solver.msecs': 34,
 'task.msecs': 74}
