proyfinal/src/viki/013/experimentInOfficeAgust.take6.output/54107d41-8d3b-436a-9e79-b84a8129ecaf.als.out
Reading from standard input... Use '--help' for help.
============================[ Problem Statistics ]=============================
|                                                                             |
|  Number of variables:         69608                                         |
|  Number of clauses:          118081                                         |
|  Parse time:                   0.03 s                                       |
|                                                                             |
============================[ Search Statistics ]==============================
| Conflicts |          ORIGINAL         |          LEARNT          | Progress |
|           |    Vars  Clauses Literals |    Limit  Clauses Lit/Cl |          |
===============================================================================
===============================================================================
restarts              : 1
conflicts             : 6              (173 /sec)
decisions             : 1219           (0.00 % random) (35186 /sec)
propagations          : 20763          (599325 /sec)
conflict literals     : 7              (0.00 % deleted)
Memory used           : 14.68 MB
CPU time              : 0.034644 s

UNSATISFIABLE
